(set-info :smt-lib-version 2.6)
(set-logic QF_DT)
(set-info :source |
Generated by: Federico Mora
Generated on: 2023-07-20
Generator: z3 Python bindings via UCLID5 Python API
Application: Blocksworld Automated Reasoning Problems.
Target solvers: Algaroba, cvc5, Z3, Princess
Publications: Shah, Mora and Seshia. An Eager Satisfiability Modulo Theories Solver for Algebraic Datatypes. AAAI ’24 |)
(set-info :license "https://creativecommons.org/licenses/by/4.0/")
(set-info :category "industrial")
(set-info :status unsat) 
(declare-datatypes ((Enum_A_B_C_D_E_F_G_H_I_J_K_L_M_N_O_P_Q_R_S_T_U_V 0)) (((A) (B) (C) (D) (E) (F) (G) (H) (I) (J) (K) (L) (M) (N) (O) (P) (Q) (R) (S) (T) (U) (V))))
(declare-datatypes ((Tower 0)) (((stack (top Enum_A_B_C_D_E_F_G_H_I_J_K_L_M_N_O_P_Q_R_S_T_U_V) (rest Tower)) (empty))))
(declare-datatypes ((Record_left_center_right 0)) (((Record_left_center_right (left Tower) (center Tower) (right Tower)))))
(declare-datatypes ((Enum_left-to-center_left-to-right_center-to-left_center-to-right_right-to-left_right-to-center 0)) (((left-to-center) (left-to-right) (center-to-left) (center-to-right) (right-to-left) (right-to-center))))
(declare-fun s () Record_left_center_right)
(declare-fun s_tmp () Record_left_center_right)
(declare-fun c () Enum_left-to-center_left-to-right_center-to-left_center-to-right_right-to-left_right-to-center)
(declare-fun c_tmp () Enum_left-to-center_left-to-right_center-to-left_center-to-right_right-to-left_right-to-center)
(declare-fun s_tmp_ () Record_left_center_right)
(declare-fun s_tmp__ () Record_left_center_right)
(declare-fun s_tmp___ () Record_left_center_right)
(declare-fun c!0 () Enum_left-to-center_left-to-right_center-to-left_center-to-right_right-to-left_right-to-center)
(declare-fun c_tmp____ () Enum_left-to-center_left-to-right_center-to-left_center-to-right_right-to-left_right-to-center)
(declare-fun s_ () Record_left_center_right)
(declare-fun c_ () Enum_left-to-center_left-to-right_center-to-left_center-to-right_right-to-left_right-to-center)
(declare-fun c!1 () Enum_left-to-center_left-to-right_center-to-left_center-to-right_right-to-left_right-to-center)
(declare-fun c__ () Enum_left-to-center_left-to-right_center-to-left_center-to-right_right-to-left_right-to-center)
(declare-fun s__ () Record_left_center_right)
(assert
 (= s_tmp s))
(assert
 (= c_tmp c))
(assert
 (let ((?x34 (stack H empty)))
 (let ((?x35 (stack C ?x34)))
 (let ((?x36 (stack P ?x35)))
 (let ((?x124 (left s_tmp_)))
 (= ?x124 ?x36))))))
(assert
 (let ((?x37 (stack J empty)))
 (let ((?x127 (center s_tmp__)))
 (= ?x127 ?x37))))
(assert
 (let ((?x38 (stack A empty)))
 (let ((?x39 (stack B ?x38)))
 (let ((?x40 (stack D ?x39)))
 (let ((?x41 (stack E ?x40)))
 (let ((?x42 (stack F ?x41)))
 (let ((?x43 (stack G ?x42)))
 (let ((?x44 (stack I ?x43)))
 (let ((?x45 (stack K ?x44)))
 (let ((?x46 (stack L ?x45)))
 (let ((?x47 (stack M ?x46)))
 (let ((?x48 (stack N ?x47)))
 (let ((?x49 (stack O ?x48)))
 (let ((?x50 (stack Q ?x49)))
 (let ((?x51 (stack R ?x50)))
 (let ((?x52 (stack S ?x51)))
 (let ((?x53 (stack T ?x52)))
 (let ((?x54 (stack U ?x53)))
 (let ((?x55 (stack V ?x54)))
 (let ((?x130 (right s_tmp___)))
 (= ?x130 ?x55)))))))))))))))))))))
(assert
 (= c_tmp____ c!0))
(assert
 (= s_ s_tmp___))
(assert
 (= c_ c_tmp____))
(assert
 (let ((?x157 (left s_tmp__)))
 (= (left s_tmp___) ?x157)))
(assert
 (let ((?x127 (center s_tmp__)))
 (= (center s_tmp___) ?x127)))
(assert
 (let ((?x161 (center s_tmp_)))
 (= ?x161 (center s_tmp))))
(assert
 (let ((?x164 (right s_tmp_)))
 (= ?x164 (right s_tmp))))
(assert
 (let ((?x124 (left s_tmp_)))
 (let ((?x157 (left s_tmp__)))
 (= ?x157 ?x124))))
(assert
 (let ((?x164 (right s_tmp_)))
 (let ((?x168 (right s_tmp__)))
 (= ?x168 ?x164))))
(assert
 (= c__ c!1))
(assert
 (let ((?x101 (left s_)))
 (let ((?x278 (left s__)))
 (let (($x323 (= ?x278 ?x101)))
 (let ((?x104 (right s_)))
 (let (($x281 ((_ is stack ) ?x104)))
 (let (($x296 (= c_ right-to-left)))
 (let (($x297 (and $x296 $x281)))
 (let ((?x106 (center s_)))
 (let (($x298 ((_ is stack ) ?x106)))
 (let (($x299 (= c_ center-to-right)))
 (let (($x300 (and $x299 $x298)))
 (let (($x301 (= c_ center-to-left)))
 (let (($x302 (and $x301 $x298)))
 (let (($x332 (ite $x302 (= ?x278 (stack (top ?x106) ?x101)) (ite $x300 $x323 (ite $x297 (= ?x278 (stack (top ?x104) ?x101)) $x323)))))
 (let ((?x285 (rest ?x101)))
 (let (($x310 (= ?x278 ?x285)))
 (let (($x303 ((_ is stack ) ?x101)))
 (let (($x304 (= c_ left-to-right)))
 (let (($x305 (and $x304 $x303)))
 (let (($x306 (= c_ left-to-center)))
 (let (($x307 (and $x306 $x303)))
 (ite $x307 $x310 (ite $x305 $x310 $x332))))))))))))))))))))))))
(assert
 (let ((?x104 (right s_)))
 (let ((?x286 (right s__)))
 (let (($x319 (= ?x286 ?x104)))
 (let ((?x283 (rest ?x104)))
 (let (($x316 (= ?x286 ?x283)))
 (let (($x281 ((_ is stack ) ?x104)))
 (let (($x294 (= c_ right-to-center)))
 (let (($x295 (and $x294 $x281)))
 (let (($x296 (= c_ right-to-left)))
 (let (($x297 (and $x296 $x281)))
 (let ((?x106 (center s_)))
 (let (($x298 ((_ is stack ) ?x106)))
 (let (($x299 (= c_ center-to-right)))
 (let (($x300 (and $x299 $x298)))
 (let (($x329 (ite $x300 (= ?x286 (stack (top ?x106) ?x104)) (ite $x297 $x316 (ite $x295 $x316 $x319)))))
 (let (($x301 (= c_ center-to-left)))
 (let (($x302 (and $x301 $x298)))
 (let ((?x101 (left s_)))
 (let (($x303 ((_ is stack ) ?x101)))
 (let (($x304 (= c_ left-to-right)))
 (let (($x305 (and $x304 $x303)))
 (let (($x306 (= c_ left-to-center)))
 (let (($x307 (and $x306 $x303)))
 (ite $x307 (= ?x286 (stack (top ?x101) ?x104)) (ite $x305 $x319 (ite $x302 $x319 $x329)))))))))))))))))))))))))))
(assert
 (let ((?x106 (center s_)))
 (let ((?x292 (center s__)))
 (let (($x321 (= ?x292 ?x106)))
 (let ((?x104 (right s_)))
 (let (($x281 ((_ is stack ) ?x104)))
 (let (($x294 (= c_ right-to-center)))
 (let (($x295 (and $x294 $x281)))
 (let (($x296 (= c_ right-to-left)))
 (let (($x297 (and $x296 $x281)))
 (let ((?x288 (rest ?x106)))
 (let (($x313 (= ?x292 ?x288)))
 (let (($x298 ((_ is stack ) ?x106)))
 (let (($x299 (= c_ center-to-right)))
 (let (($x300 (and $x299 $x298)))
 (let (($x328 (ite $x300 $x313 (ite $x297 $x321 (ite $x295 (= ?x292 (stack (top ?x104) ?x106)) $x321)))))
 (let (($x301 (= c_ center-to-left)))
 (let (($x302 (and $x301 $x298)))
 (let ((?x101 (left s_)))
 (let (($x303 ((_ is stack ) ?x101)))
 (let (($x304 (= c_ left-to-right)))
 (let (($x305 (and $x304 $x303)))
 (let (($x306 (= c_ left-to-center)))
 (let (($x307 (and $x306 $x303)))
 (ite $x307 $x321 (ite $x305 (= ?x292 (stack (top ?x101) ?x106)) (ite $x302 $x313 $x328)))))))))))))))))))))))))))
(assert
 (let ((?x77 (stack Q (stack G (stack D empty)))))
 (let ((?x286 (right s__)))
 (let (($x339 (= ?x286 ?x77)))
 (let ((?x64 (stack H (stack I (stack V (stack M (stack S (stack U empty))))))))
 (let ((?x70 (stack E (stack P (stack K (stack B (stack R (stack A ?x64))))))))
 (let ((?x74 (stack F (stack L (stack O (stack C ?x70))))))
 (let ((?x292 (center s__)))
 (let (($x381 (= ?x292 ?x74)))
 (let ((?x58 (stack J (stack N (stack T empty)))))
 (let ((?x278 (left s__)))
 (let (($x382 (= ?x278 ?x58)))
 (let (($x384 (not (and $x382 $x381 $x339))))
 (not $x384))))))))))))))
(check-sat)
(exit)
